c instance by G2
c solution = 1000101101110100011
c Known solution cost is 696 
p cnf 19 30
w 21 63 54 89 7 42 22 60 13 56 56 44 23 20 11 8 39 35 33
13 1 6 0
2 7 17 0
1 -18 -16 0
7 -19 -1 0
17 18 15 0
3 -6 -18 0
-18 13 -17 0
16 -5 11 0
16 -15 -8 0
-8 -10 -9 0
-1 11 -17 0
-18 6 -2 0
16 8 13 0
10 3 -7 0
-11 10 -8 0
9 19 17 0
-9 13 12 0
-12 -3 -1 0
9 14 10 0
4 18 19 0
4 -18 19 0
-14 -4 17 0
-10 12 -7 0
-11 5 -12 0
-18 -2 -5 0
17 -16 -5 0
-8 3 -13 0
16 -10 14 0
-16 -8 15 0
13 -3 -18 0
